c Random 9-CNF over 10 variables and 80 clauses
c Generated with `cnfgen`
c (C) 2012-2016 Massimo Lauria <lauria.massimo@gmail.com>
c https://massimolauria.github.io/cnfgen
c
c COMMAND LINE: cnfgen --output tmp-9-10-80.dimacs --output-format dimacs randkcnf 9 10 80
c
c sdimacs generated by gen-sdimacs
c
p cnf 10 80
e 6 7 8 9 10 0
r 0.37 1 2 3 4 5 0
-1 3 4 5 6 -7 -8 -9 10 0
-1 2 3 -4 5 6 8 9 -10 0
-1 -3 -4 -5 -6 7 8 -9 -10 0
1 -2 -4 5 -6 7 8 9 -10 0
-1 2 3 -4 -5 -6 -8 -9 10 0
-1 -2 3 5 -6 7 8 -9 10 0
1 -2 3 -4 5 6 -8 -9 -10 0
-1 2 -3 4 -5 6 -7 8 9 0
-1 2 3 5 -6 7 8 9 10 0
1 -2 4 -5 -6 7 8 9 10 0
1 -2 -3 4 6 7 8 9 -10 0
-2 -3 4 -5 6 7 8 -9 -10 0
1 -2 3 -5 -6 7 8 -9 -10 0
2 -3 -4 -5 -6 -7 -8 9 -10 0
-1 2 -3 -4 5 -6 8 -9 -10 0
1 2 -3 -4 -5 -6 -7 -8 9 0
-1 2 3 5 -6 7 8 9 -10 0
1 2 3 4 -5 6 -7 -8 -9 0
2 -3 -4 5 -6 7 -8 -9 10 0
-1 -2 3 -4 6 -7 -8 -9 10 0
1 2 3 -4 -5 -6 -8 9 -10 0
1 2 3 4 -5 -6 8 -9 -10 0
-1 2 -3 4 -5 -6 -8 9 10 0
1 2 3 -4 -5 6 -7 8 -9 0
1 3 -4 5 6 -7 8 9 -10 0
1 -2 -3 5 -6 -7 -8 9 10 0
-1 2 -4 -5 6 -7 -8 -9 -10 0
-1 2 -3 -4 -5 -6 7 -8 9 0
1 -2 3 4 -5 -6 -7 -8 -10 0
1 3 4 -5 -6 7 -8 9 -10 0
1 -2 3 4 5 -6 -7 -9 -10 0
-1 3 -4 5 6 7 8 9 10 0
1 -2 3 -4 6 7 -8 9 10 0
-1 -2 -3 4 -5 -6 7 -8 -9 0
1 3 4 -5 6 7 -8 -9 10 0
-1 -2 -3 4 5 -7 8 9 10 0
1 2 3 4 -5 -6 7 -8 9 0
-2 3 4 -5 6 7 -8 9 10 0
-1 -2 3 4 -5 -6 -7 -9 10 0
-1 2 -3 -4 -5 6 8 9 10 0
1 -2 3 5 6 -7 -8 -9 10 0
1 -2 -3 4 5 -6 -7 8 10 0
1 -3 4 -5 6 7 8 9 10 0
1 -2 3 -5 6 7 -8 9 10 0
-1 -2 3 4 5 6 -8 -9 -10 0
1 -2 3 -4 -6 7 -8 9 10 0
-1 -3 -4 -5 6 7 -8 -9 10 0
1 2 -3 -4 -5 -7 8 -9 10 0
-1 -2 -3 -5 -6 -7 8 9 10 0
-1 2 3 -4 6 -7 -8 -9 -10 0
-1 2 -3 -4 5 -6 7 9 10 0
-2 3 -4 5 -6 7 8 9 -10 0
-1 2 -4 5 6 -7 8 -9 -10 0
2 -3 -4 -5 6 -7 -8 9 10 0
1 2 -3 -4 6 -7 8 9 -10 0
1 -2 -3 -4 5 -6 -8 -9 10 0
1 -2 -3 4 -5 -6 7 -9 10 0
1 -2 3 4 5 -6 8 -9 10 0
-1 2 -4 -5 -6 7 -8 9 -10 0
1 2 3 4 -5 -6 8 9 -10 0
2 3 4 -5 6 7 8 9 10 0
1 -2 3 5 6 -7 8 9 -10 0
-1 -3 4 -5 6 7 8 9 -10 0
-1 -2 3 -4 5 -6 7 8 -9 0
-1 2 -4 5 -6 7 -8 9 -10 0
-1 -2 -3 5 6 -7 -8 9 10 0
-1 2 3 -4 -5 7 8 -9 -10 0
-1 2 4 -5 -6 -7 -8 -9 -10 0
-1 2 3 -4 5 7 8 9 10 0
-1 -2 -3 -4 5 7 8 -9 10 0
-1 2 4 -5 -6 7 -8 9 -10 0
-1 -2 3 -4 5 7 8 -9 10 0
-1 -3 -4 -5 6 -7 8 -9 -10 0
1 2 -3 4 -5 6 7 -9 10 0
-1 -2 3 4 -5 -6 7 -8 10 0
1 -3 -4 5 -6 7 8 9 -10 0
1 2 3 -4 5 -6 8 -9 -10 0
-1 -2 -3 -4 5 -7 8 9 10 0
-1 -2 3 4 6 -7 -8 -9 -10 0
-1 -2 -3 4 6 -7 8 -9 10 0
